c ---- [ banner ] ------------------------------------------------------------
c
c Kissat SAT Solver
c 
c Copyright (c) 2021-2024 Armin Biere University of Freiburg
c Copyright (c) 2019-2021 Armin Biere Johannes Kepler University Linz
c 
c Version 4.0.1 43f02cf3e992cb44653b35e5cb26f93281552ae0
c gcc (Ubuntu 13.2.0-23ubuntu4) 13.2.0 -W -Wall -O3 -DNDEBUG
c Thu Sep 12 12:27:46 CEST 2024 Linux abryzen9 6.8.0-41-generic x86_64
c
c ---- [ parsing ] -----------------------------------------------------------
c
c opened and reading DIMACS file:
c
c   /data/artifact/AMulet2.0_artifact/exp4/cnf_compress2rs_64/64_64_U_SP_CWT_SE_GenMul_compress2rs.cnf
c
c parsed 'p cnf 39215 152043' header
c closing input after reading 2971672 bytes (3 MB)
c finished parsing after 0.04 seconds
c
c ---- [ options ] -----------------------------------------------------------
c
c --stable=0                       (different from default '1')
c
c ---- [ solving ] -----------------------------------------------------------
c
c  seconds switched rate     size/glue tier1  binary           remaining
c         MB reductions conflicts size  tier2     irredundant
c          level restarts redundant glue  trail           variables
c
c *  0.04 12 0 0 0  0 0   0   0 0.0 0 0 0 0 0% 39153 112888 39212 100%
c (  0.06 13 0 0 0  0 0   0   0 0.0 0 0 0 0 0% 39153 112888 39212 100%
c .  0.08 13 0 0 0  0 0   0   0 0.0 0 0 0 0 0% 39149 112888 39212 100%
c c  0.20 24 0 0 0  0 0   0   0 0.0 0 0 0 0 0% 48007 97077 34781 89%
c d  0.21 24 0 0 0  0 0   0   0 0.0 0 0 0 0 0% 39145 97077 34781 89%
c =  0.28 24 0 0 0  0 0   0   0 0.0 0 0 0 0 0% 38095 97077 34671 88%
c d  0.29 24 0 0 0  0 0   0   0 0.0 0 0 0 0 0% 37875 97077 34671 88%
c f  0.44 22 0 0 0  0 0   0   0 0.0 0 0 0 0 0% 39360 94561 35668 91%
c e  0.64 29 0 0 0  0 0   0   0 0.0 0 0 0 0 0% 23002 103217 26848 68%
c )  0.64 29 0 0 0  0 0   0   0 0.0 0 0 0 0 0% 23002 103217 26848 68%
c {  0.67 29 0 0 0  0 0   0   0 0.0 0 0 2 6 0% 23002 103217 26848 68%
c -  0.93 29 116 0 1 203 22 1000 749 2.7 11 4 3 6 17% 23085 103209 26848 68%
c -  1.21 29 153 0 2 315 27 2000 1451 2.6 11 4 3 7 23% 23151 103209 26848 68%
c c  1.64 23 155 0 2 439 29 2505 1898 3.1 14 5 3 7 24% 23160 103174 26840 68%
c d  1.65 23 155 0 2 439 29 2505 1893 3.1 14 5 3 7 24% 23144 103174 26840 68%
c u  1.69 23 155 0 2 439 29 2505 1451 3.1 14 5 3 7 24% 23150 103174 26840 68%
c v  1.73 23 155 0 2 439 29 2505 1264 3.1 14 5 3 7 24% 23151 103174 26840 68%
c w  1.78 25 155 0 2 439 29 2505 1264 3.1 14 5 3 7 24% 23151 103174 26840 68%
c x  1.80 25 155 0 2 439 29 2505 1264 3.1 14 5 3 7 24% 23250 102945 26840 68%
c =  1.91 25 155 0 2 439 29 2505 1264 3.1 14 5 3 7 24% 23270 102945 26830 68%
c
c  seconds   switched   rate       size/glue tier1    binary           remaining
c         MB  reductions conflicts       size  tier2      irredundant
c           level restarts    redundant    glue   trail           variables
c
c d  1.92 25 155 0 2 439 29 2505 1263 3.1 14 5 3 7 24% 23248 102945 26829 68%
c f  1.99 25 155 0 2 439 29 2505 1263 3.1 14 5 3 7 24% 23912 101747 27319 70%
c u  2.04 25 155 0 2 439 29 2505 1170 3.1 14 5 3 7 24% 23916 101747 27319 70%
c v  2.07 25 155 0 2 439 29 2505 1129 3.1 14 5 3 7 24% 23916 101747 27319 70%
c w  2.10 25 155 0 2 439 29 2505 1113 3.1 14 5 3 7 24% 23916 101747 27319 70%
c x  2.12 25 155 0 2 439 29 2505 1113 3.1 14 5 3 7 24% 23917 101745 27319 70%
c =  2.21 25 155 0 2 439 29 2505 1113 3.1 14 5 3 7 24% 24011 101745 27272 70%
c d  2.22 25 155 0 2 439 29 2505 1113 3.1 14 5 3 7 24% 23877 101745 27272 70%
c f  2.27 25 155 0 2 439 29 2505 1113 3.1 14 5 3 7 24% 24006 101529 27354 70%
c -  2.46 27 203 0 3 513 29 3414 1686 2.9 13 5 3 8 26% 24053 101526 27354 70%
c -  2.80 27 295 0 4 680 33 5147 2905 3.1 14 4 3 8 27% 24156 101517 27354 70%
c -  3.40 27 258 0 5 982 31 7149 4170 3.1 14 5 3 7 27% 24258 101512 27354 70%
c c  3.60 27 262 0 5 1032 31 7717 4678 3.1 14 5 3 7 27% 24283 101482 27348 70%
c d  3.61 27 262 0 5 1032 31 7717 4677 3.1 14 5 3 7 27% 24259 101482 27341 70%
c u  3.66 27 262 0 5 1032 31 7717 3562 3.1 14 5 3 7 27% 24276 101482 27341 70%
c v  3.70 27 262 0 5 1032 31 7717 3301 3.1 14 5 3 7 27% 24276 101482 27341 70%
c w  3.73 27 262 0 5 1032 31 7717 3295 3.1 14 5 3 7 27% 24276 101482 27341 70%
c =  3.86 27 262 0 5 1032 31 7717 3295 3.1 14 5 3 7 27% 24592 101482 27183 69%
c d  3.87 27 262 0 5 1032 31 7717 3285 3.1 14 5 3 7 27% 24193 101482 27183 69%
c t  3.89 27 262 0 5 1032 31 7717 3285 3.1 14 5 3 7 27% 24188 101482 27183 69%
c
c  seconds   switched    rate       size/glue tier1    binary          remaining
c         MB  reductions  conflicts       size  tier2      irredundant
c           level  restarts    redundant    glue   trail          variables
c
c f  3.94 27 262 0 5 1032 31 7717 3285 3.1 14 5 3 7 27% 25171 99973 27708 71%
c u  3.99 27 262 0 5 1032 31 7717 3089 3.1 14 5 3 7 27% 25174 99973 27708 71%
c v  4.02 27 262 0 5 1032 31 7717 3031 3.1 14 5 3 7 27% 25175 99973 27708 71%
c w  4.05 27 262 0 5 1032 31 7717 3024 3.1 14 5 3 7 27% 25175 99973 27708 71%
c x  4.08 27 262 0 5 1032 31 7717 3024 3.1 14 5 3 7 27% 25178 99693 27708 71%
c =  4.23 27 262 0 5 1032 31 7717 3024 3.1 14 5 3 7 27% 25514 99693 27540 70%
c d  4.24 27 262 0 5 1032 31 7717 3009 3.1 14 5 3 7 27% 25131 99693 27540 70%
c t  4.26 27 262 0 5 1032 31 7717 3009 3.1 14 5 3 7 27% 25122 99693 27540 70%
c f  4.32 27 262 0 5 1032 31 7717 3009 3.1 14 5 3 7 27% 25222 99529 27596 70%
c -  4.72 27 272 0 6 1194 31 9387 3996 3.1 14 5 3 7 26% 25351 99504 27596 70%
c o  4.95 27 262 0 6 1284 30 10014 4554 3.2 15 5 3 7 25% 25379 99503 27596 70%
c -  5.67 27 250 0 7 1544 31 11836 5315 3.3 16 5 2 7 26% 25444 99503 27596 70%
c s  5.94 27 243 0 7 1605 30 12525 5901 3.3 16 5 2 7 26% 25478 98524 27596 70%
c e  6.07 27 243 0 7 1605 30 12525 5901 3.3 16 5 2 7 26% 23817 100056 26657 68%
c s  6.08 27 243 0 7 1605 30 12525 5901 3.3 16 5 2 7 26% 23822 99353 26657 68%
c e  6.10 27 243 0 7 1605 30 12525 5901 3.3 16 5 2 7 26% 23161 99805 26447 67%
c ^  6.10 27 243 0 7 1605 30 12525 5901 3.3 16 5 2 7 26% 23161 99805 26447 67%
c -  6.51 27 239 0 8 1747 29 14481 6176 3.2 16 5 2 7 26% 23244 99799 26447 67%
c d  7.00 27 238 0 8 1916 30 15807 7376 3.1 16 5 2 7 26% 23222 99799 26406 67%
c u  7.06 27 238 0 8 1916 30 15807 6123 3.1 16 5 2 7 26% 23237 99799 26406 67%
c
c  seconds   switched    rate        size/glue tier1    binary          remaining
c         MB  reductions   conflicts       size  tier2      irredundant
c           level  restarts     redundant    glue   trail          variables
c
c v  7.14 27 238 0 8 1916 30 15807 5278 3.1 16 5 2 7 26% 23237 99799 26406 67%
c w  7.21 27 238 0 8 1916 30 15807 5277 3.1 16 5 2 7 26% 23237 99799 26406 67%
c x  7.26 27 238 0 8 1916 30 15807 5276 3.1 16 5 2 7 26% 23261 97593 26406 67%
c =  7.52 27 238 0 8 1916 30 15807 5276 3.1 16 5 2 7 26% 24441 97593 25816 66%
c d  7.53 27 238 0 8 1916 30 15807 5239 3.1 16 5 2 7 26% 22925 97593 25815 66%
c t  7.56 27 238 0 8 1916 30 15807 5239 3.1 16 5 2 7 26% 22908 97593 25815 66%
c f  7.63 27 238 0 8 1916 30 15807 5239 3.1 16 5 2 7 26% 22918 97527 25837 66%
c c  7.74 27 238 0 8 1916 30 15807 5238 3.1 16 5 2 7 26% 22921 97519 25835 66%
c d  7.75 27 238 0 8 1916 30 15807 5238 3.1 16 5 2 7 26% 22917 97519 25835 66%
c u  7.80 27 238 0 8 1916 30 15807 4939 3.1 16 5 2 7 26% 22921 97519 25835 66%
c v  7.86 27 238 0 8 1916 30 15807 4758 3.1 16 5 2 7 26% 22921 97519 25835 66%
c w  7.95 27 238 0 8 1916 30 15807 4728 3.1 16 5 2 7 26% 22921 97519 25835 66%
c x  8.00 27 238 0 8 1916 30 15807 4717 3.1 16 5 2 7 26% 22978 96349 25835 66%
c =  8.24 27 238 0 8 1916 30 15807 4717 3.1 16 5 2 7 26% 23712 96349 25468 65%
c d  8.26 27 238 0 8 1916 30 15807 4693 3.1 16 5 2 7 26% 22805 96349 25468 65%
c t  8.29 27 238 0 8 1916 30 15807 4693 3.1 16 5 2 7 26% 22800 96349 25468 65%
c f  8.32 27 238 0 8 1916 30 15807 4693 3.1 16 5 2 7 26% 22808 96309 25480 65%
c -  8.69 27 235 0 9 2028 29 17309 5252 3.1 16 5 2 7 26% 22863 96308 25480 65%
c o  9.60 27 236 0 9 2313 29 20205 7893 3.0 17 6 2 7 27% 22942 96308 25480 65%
c -  9.71 27 236 0 10 2342 29 20309 7075 3.1 17 6 2 7 27% 22946 96308 25480 65%
c
c  seconds   switched     rate        size/glue tier1    binary          remaining
c         MB   reductions   conflicts       size  tier2      irredundant
c           level   restarts     redundant    glue   trail          variables
c
c - 10.50 27 238 0 11 2577 28 23472 8700 3.1 19 6 2 6 27% 23063 96304 25480 65%
c s 10.76 27 248 0 11 2653 28 25043 10101 3.0 18 6 2 6 27% 23110 95773 25480 65%
c e 10.94 27 248 0 11 2653 28 25043 10101 3.0 18 6 2 6 27% 19080 102411 22135 56%
c 2 10.95 27 248 0 11 2653 28 25043 10101 3.0 18 6 2 6 27% 19077 102411 22135 56%
c s 10.98 27 248 0 11 2653 28 25043 10101 3.0 18 6 2 6 27% 19415 100367 22135 56%
c e 11.02 27 248 0 11 2653 28 25043 10101 3.0 18 6 2 6 27% 19290 100563 22058 56%
c ^ 11.02 27 248 0 11 2653 28 25043 10101 3.0 18 6 2 6 27% 19290 100563 22058 56%
c - 11.32 27 254 0 12 2732 27 26789 7888 3.0 18 6 2 6 27% 19319 100559 22058 56%
c d 11.35 27 256 0 12 2738 27 26945 8026 3.0 18 6 2 6 27% 19285 100559 22033 56%
c u 11.42 27 256 0 12 2738 27 26945 6701 3.0 18 6 2 6 27% 19302 100559 22033 56%
c v 11.48 27 256 0 12 2738 27 26945 5867 3.0 18 6 2 6 27% 19303 100559 22033 56%
c w 11.50 27 256 0 12 2738 27 26945 5864 3.0 18 6 2 6 27% 19303 100559 22033 56%
c x 11.58 27 256 0 12 2738 27 26945 5835 3.0 18 6 2 6 27% 19346 99264 22033 56%
c = 11.86 27 256 0 12 2738 27 26945 5835 3.0 18 6 2 6 27% 21398 99264 21007 54%
c d 11.87 27 256 0 12 2738 27 26945 5734 3.0 18 6 2 6 27% 19322 99264 21007 54%
c t 11.90 27 256 0 12 2738 27 26945 5734 3.0 18 6 2 6 27% 19224 99264 21007 54%
c f 12.01 27 256 0 12 2738 27 26945 5734 3.0 18 6 2 6 27% 19544 97968 21282 54%
c u 12.08 27 256 0 12 2738 27 26945 5421 3.0 18 6 2 6 27% 19546 97968 21282 54%
c v 12.12 27 256 0 12 2738 27 26945 5234 3.0 18 6 2 6 27% 19546 97968 21282 54%
c w 12.14 27 256 0 12 2738 27 26945 5234 3.0 18 6 2 6 27% 19546 97968 21282 54%
c
c  seconds   switched     rate        size/glue tier1    binary          remaining
c         MB   reductions   conflicts       size  tier2      irredundant
c           level   restarts     redundant    glue   trail          variables
c
c x 12.26 27 256 0 12 2738 27 26945 5229 3.0 18 6 2 6 27% 19580 92888 21282 54%
c = 12.53 27 256 0 12 2738 27 26945 5229 3.0 18 6 2 6 27% 20928 92888 20608 53%
c d 12.54 27 256 0 12 2738 27 26945 5206 3.0 18 6 2 6 27% 19555 92888 20608 53%
c t 12.57 27 256 0 12 2738 27 26945 5206 3.0 18 6 2 6 27% 19486 92888 20608 53%
c f 12.66 27 256 0 12 2738 27 26945 5206 3.0 18 6 2 6 27% 19548 92506 20677 53%
c - 13.29 27 250 0 13 2949 27 30253 7230 3.0 18 6 2 6 27% 19616 92504 20677 53%
c - 13.75 27 256 0 14 3080 26 33858 9373 2.9 17 6 2 6 27% 19702 92496 20677 53%
c - 14.58 27 252 0 15 3371 26 37600 11094 3.0 17 6 2 6 27% 19790 92495 20677 53%
c o 15.03 27 244 0 15 3524 25 40211 13384 3.0 17 6 2 6 26% 19860 92493 20677 53%
c d 15.37 27 241 0 15 3662 25 41278 14328 3.0 17 6 2 6 27% 19843 92491 20652 53%
c u 15.47 27 241 0 15 3662 25 41278 12229 3.0 17 6 2 6 27% 19861 92491 20652 53%
c v 15.54 27 241 0 15 3662 25 41278 11776 3.0 17 6 2 6 27% 19861 92491 20652 53%
c w 15.60 27 241 0 15 3662 25 41278 11776 3.0 17 6 2 6 27% 19861 92491 20652 53%
c x 15.67 27 241 0 15 3662 25 41278 11769 3.0 17 6 2 6 27% 19862 89452 20652 53%
c = 15.91 27 241 0 15 3662 25 41278 11769 3.0 17 6 2 6 27% 20006 89452 20580 52%
c d 15.92 27 241 0 15 3662 25 41278 11709 3.0 17 6 2 6 27% 19841 89452 20580 52%
c t 15.95 27 241 0 15 3662 25 41278 11709 3.0 17 6 2 6 27% 19808 89452 20580 52%
c f 15.98 27 241 0 15 3662 25 41278 11709 3.0 17 6 2 6 27% 19818 89393 20591 53%
c u 16.13 27 241 0 15 3662 25 41278 11342 3.0 17 6 2 6 27% 19824 89393 20591 53%
c v 16.22 27 241 0 15 3662 25 41278 10331 3.0 17 6 2 6 27% 19825 89393 20591 53%
c
c  seconds   switched     rate         size/glue tier1    binary          remaining
c         MB   reductions   conflicts        size  tier2      irredundant
c           level   restarts      redundant    glue   trail          variables
c
c w 16.27 27 241 0 15 3662 25 41278 10331 3.0 17 6 2 6 27% 19825 89393 20591 53%
c x 16.35 27 241 0 15 3662 25 41278 10326 3.0 17 6 2 6 27% 19825 87300 20591 53%
c = 16.60 27 241 0 15 3662 25 41278 10326 3.0 17 6 2 6 27% 20203 87300 20402 52%
c d 16.61 27 241 0 15 3662 25 41278 10308 3.0 17 6 2 6 27% 19735 87300 20402 52%
c t 16.64 27 241 0 15 3662 25 41278 10308 3.0 17 6 2 6 27% 19733 87300 20402 52%
c f 16.66 27 241 0 15 3662 25 41278 10308 3.0 17 6 2 6 27% 19749 87218 20417 52%
c - 16.70 27 240 0 16 3666 25 41472 9143 3.0 17 6 2 6 27% 19752 87218 20417 52%
c - 17.48 27 232 0 17 3947 24 45472 11214 2.9 17 6 2 6 27% 19827 87213 20417 52%
c - 18.53 27 225 0 18 4274 24 49597 13286 2.9 17 6 2 6 27% 19889 87213 20417 52%
c s 18.86 27 226 0 18 4359 23 52173 15512 2.9 17 6 2 6 27% 19940 86418 20417 52%
c e 19.03 28 226 0 18 4359 23 52173 15512 2.9 17 6 2 6 27% 15377 94028 17993 46%
c 2 19.03 28 226 0 18 4359 23 52173 15512 2.9 17 6 2 6 27% 15375 94028 17993 46%
c s 19.06 28 226 0 18 4359 23 52173 15512 2.9 17 6 2 6 27% 15603 92480 17993 46%
c e 19.10 28 226 0 18 4359 23 52173 15512 2.9 17 6 2 6 27% 15082 93226 17814 45%
c ^ 19.10 28 226 0 18 4359 23 52173 15512 2.9 17 6 2 6 27% 15082 93226 17814 45%
c - 19.57 31 222 0 19 4511 23 53839 11865 2.9 17 6 2 6 27% 15105 93226 17814 45%
c - 20.52 31 218 0 20 4857 23 58197 13856 2.8 16 6 2 6 27% 15177 93226 17814 45%
c d 20.63 31 216 0 20 4872 22 58907 14452 2.8 16 6 2 6 27% 15173 93225 17806 45%
c u 20.73 31 216 0 20 4872 22 58907 12123 2.8 16 6 2 6 27% 15183 93225 17806 45%
c v 20.82 31 216 0 20 4872 22 58907 10511 2.8 16 6 2 6 27% 15184 93225 17806 45%
c
c  seconds   switched     rate         size/glue tier1    binary          remaining
c         MB   reductions   conflicts        size  tier2      irredundant
c           level   restarts      redundant    glue   trail          variables
c
c w 20.85 31 216 0 20 4872 22 58907 10495 2.8 16 6 2 6 27% 15184 93225 17806 45%
c x 20.97 31 216 0 20 4872 22 58907 10494 2.8 16 6 2 6 27% 15186 92462 17806 45%
c = 21.32 31 216 0 20 4872 22 58907 10494 2.8 16 6 2 6 27% 15640 92462 17579 45%
c d 21.33 31 216 0 20 4872 22 58907 10260 2.8 16 6 2 6 27% 15154 92462 17578 45%
c t 21.36 31 216 0 20 4872 22 58907 10260 2.8 16 6 2 6 27% 15066 92462 17578 45%
c f 21.49 31 216 0 20 4872 22 58907 10260 2.8 16 6 2 6 27% 15379 91424 17715 45%
c u 21.58 31 216 0 20 4872 22 58907 9693 2.8 16 6 2 6 27% 15387 91424 17715 45%
c v 21.64 31 216 0 20 4872 22 58907 9327 2.8 16 6 2 6 27% 15387 91424 17715 45%
c w 21.66 31 216 0 20 4872 22 58907 9312 2.8 16 6 2 6 27% 15387 91424 17715 45%
c x 21.81 31 216 0 20 4872 22 58907 9285 2.8 16 6 2 6 27% 15446 88058 17715 45%
c = 22.17 31 216 0 20 4872 22 58907 9285 2.8 16 6 2 6 27% 16520 88058 17178 44%
c d 22.18 31 216 0 20 4872 22 58907 9195 2.8 16 6 2 6 27% 15414 88058 17178 44%
c t 22.21 31 216 0 20 4872 22 58907 9195 2.8 16 6 2 6 27% 15333 88058 17178 44%
c f 22.26 31 216 0 20 4872 22 58907 9195 2.8 16 6 2 6 27% 15400 87781 17217 44%
c - 22.98 31 210 0 21 5076 22 62669 11295 2.7 16 6 2 6 28% 15444 87780 17217 44%
c - 23.71 31 207 0 22 5411 22 67251 13774 2.7 16 6 2 6 27% 15509 87778 17217 44%
c o 24.06 31 203 0 22 5581 21 70211 16402 2.7 16 6 2 6 27% 15549 87778 17217 44%
c - 24.33 31 204 0 23 5765 21 71942 15796 2.7 16 6 2 6 27% 15568 87778 17217 44%
c - 25.03 31 200 0 24 6154 21 76739 17660 2.7 16 6 2 6 27% 15634 87771 17217 44%
c d 25.90 31 198 0 24 6510 22 79959 20604 2.7 16 6 2 6 28% 15624 87771 17200 44%
c
c  seconds   switched     rate         size/glue tier1    binary          remaining
c         MB   reductions   conflicts        size  tier2      irredundant
c           level   restarts      redundant    glue   trail          variables
c
c u 26.04 31 198 0 24 6510 22 79959 17367 2.7 16 6 2 6 28% 15644 87771 17200 44%
c v 26.14 31 198 0 24 6510 22 79959 16447 2.7 16 6 2 6 28% 15644 87771 17200 44%
c w 26.21 31 198 0 24 6510 22 79959 16442 2.7 16 6 2 6 28% 15644 87771 17200 44%
c x 26.33 31 198 0 24 6510 22 79959 16430 2.7 16 6 2 6 28% 15682 85179 17200 44%
c = 26.46 31 198 0 24 6510 22 79959 16430 2.7 16 6 2 6 28% 15800 85179 17141 44%
c d 26.47 31 198 0 24 6510 22 79959 16389 2.7 16 6 2 6 28% 15667 85179 17139 44%
c t 26.50 31 198 0 24 6510 22 79959 16389 2.7 16 6 2 6 28% 15631 85179 17139 44%
c f 26.52 31 198 0 24 6510 22 79959 16389 2.7 16 6 2 6 28% 15638 85149 17143 44%
c u 26.63 31 198 0 24 6510 22 79959 15631 2.7 16 6 2 6 28% 15646 85149 17143 44%
c v 26.74 31 198 0 24 6510 22 79959 14216 2.7 16 6 2 6 28% 15648 85149 17143 44%
c w 26.83 31 198 0 24 6510 22 79959 14212 2.7 16 6 2 6 28% 15648 85149 17143 44%
c x 26.94 31 198 0 24 6510 22 79959 14206 2.7 16 6 2 6 28% 15691 83548 17143 44%
c = 27.37 31 198 0 24 6510 22 79959 14206 2.7 16 6 2 6 28% 16129 83530 16923 43%
c d 27.38 31 198 0 24 6510 22 79959 13988 2.7 16 6 2 6 28% 15664 83530 16923 43%
c t 27.41 31 198 0 24 6510 22 79959 13988 2.7 16 6 2 6 28% 15624 83530 16923 43%
c f 27.44 31 198 0 24 6510 22 79959 13988 2.7 16 6 2 6 28% 15647 83434 16936 43%
c - 27.68 31 196 0 25 6589 21 81637 13722 2.7 16 6 2 6 27% 15660 83434 16936 43%
c - 28.51 31 191 0 26 7044 21 86637 16361 2.6 15 6 2 6 28% 15709 83433 16936 43%
c - 29.39 31 187 0 27 7596 22 91736 18673 2.6 16 6 2 5 28% 15751 83431 16936 43%
c s 30.06 31 184 0 27 7997 22 95834 22349 2.6 16 6 2 5 28% 15808 81845 16936 43%
c
c  seconds   switched     rate         size/glue tier1    binary          remaining
c         MB   reductions   conflicts        size  tier2      irredundant
c           level   restarts      redundant    glue   trail          variables
c
c e 30.19 31 184 0 27 7997 22 95834 22349 2.6 16 6 2 5 28% 11042 94265 14204 36%
c 2 30.19 31 184 0 27 7997 22 95834 22349 2.6 16 6 2 5 28% 11040 94265 14204 36%
c s 30.22 31 184 0 27 7997 22 95834 22349 2.6 16 6 2 5 28% 11119 92583 14204 36%
c e 30.25 31 184 0 27 7997 22 95834 22349 2.6 16 6 2 5 28% 10941 92979 14124 36%
c ^ 30.25 31 184 0 27 7997 22 95834 22349 2.6 16 6 2 5 28% 10941 92979 14124 36%
c - 30.40 31 183 0 28 8068 22 96932 14510 2.6 16 6 2 5 28% 10953 92979 14124 36%
c - 30.99 31 179 0 29 8451 21 102225 17011 2.6 15 6 2 5 28% 10992 92979 14124 36%
c c 31.30 31 177 0 29 8585 21 104561 19162 2.6 15 6 2 5 28% 11020 92897 14109 36%
c d 31.30 31 177 0 29 8585 21 104561 19092 2.6 15 6 2 5 28% 10990 92897 14109 36%
c u 31.38 31 177 0 29 8585 21 104561 16134 2.6 15 6 2 5 28% 11015 92897 14109 36%
c v 31.44 31 177 0 29 8585 21 104561 14174 2.6 15 6 2 5 28% 11017 92897 14109 36%
c w 31.51 31 177 0 29 8585 21 104561 14108 2.6 15 6 2 5 28% 11017 92897 14109 36%
c x 31.58 31 177 0 29 8585 21 104561 14108 2.6 15 6 2 5 28% 11021 92502 14109 36%
c = 31.97 31 177 0 29 8585 21 104561 14108 2.6 15 6 2 5 28% 11419 92470 13906 35%
c d 31.98 31 177 0 29 8585 21 104561 13870 2.6 15 6 2 5 28% 10997 92470 13905 35%
c t 31.99 31 177 0 29 8585 21 104561 13870 2.6 15 6 2 5 28% 10901 92470 13905 35%
c f 32.11 31 177 0 29 8585 21 104561 13870 2.6 15 6 2 5 28% 10908 92297 13921 36%
c u 32.19 31 177 0 29 8585 21 104561 13212 2.6 15 6 2 5 28% 10914 92297 13921 36%
c v 32.24 31 177 0 29 8585 21 104561 12788 2.6 15 6 2 5 28% 10915 92297 13921 36%
c w 32.32 31 177 0 29 8585 21 104561 12590 2.6 15 6 2 5 28% 10915 92297 13921 36%
c
c  seconds   switched     rate          size/glue tier1    binary          remaining
c         MB   reductions   conflicts         size  tier2      irredundant
c           level   restarts       redundant    glue   trail          variables
c
c x 32.40 31 177 0 29 8585 21 104561 12588 2.6 15 6 2 5 28% 10915 92001 13921 36%
c = 32.79 31 177 0 29 8585 21 104561 12588 2.6 15 6 2 5 28% 11175 91999 13791 35%
c d 32.79 31 177 0 29 8585 21 104561 12531 2.6 15 6 2 5 28% 10905 91999 13791 35%
c t 32.81 31 177 0 29 8585 21 104561 12531 2.6 15 6 2 5 28% 10899 91999 13791 35%
c f 32.84 31 177 0 29 8585 21 104561 12531 2.6 15 6 2 5 28% 10903 91975 13793 35%
c - 33.32 31 174 0 30 8955 21 107614 13651 2.5 15 6 2 5 28% 10923 91975 13793 35%
c o 33.88 31 173 0 30 9373 21 110211 16073 2.5 16 6 2 5 29% 10938 91975 13793 35%
c - 34.33 31 170 0 31 9663 21 113091 16632 2.5 15 6 2 5 29% 10958 91975 13793 35%
c - 35.27 31 169 0 32 10238 21 118659 19013 2.5 16 6 2 5 29% 10994 91973 13793 35%
c - 36.03 31 167 0 33 10673 21 124315 20898 2.5 16 6 2 5 29% 11033 91973 13793 35%
c - 36.86 31 164 0 34 11179 21 130059 22768 2.5 16 6 2 5 29% 11054 91972 13793 35%
c d 37.40 31 162 0 34 11536 21 132787 25273 2.5 16 6 2 5 29% 11042 91972 13780 35%
c u 37.51 31 162 0 34 11536 21 132787 21724 2.5 16 6 2 5 29% 11051 91972 13780 35%
c v 37.60 31 162 0 34 11536 21 132787 19124 2.5 16 6 2 5 29% 11051 91972 13780 35%
c w 37.68 31 162 0 34 11536 21 132787 19121 2.5 16 6 2 5 29% 11051 91972 13780 35%
c x 37.80 31 162 0 34 11536 21 132787 19069 2.5 16 6 2 5 29% 11070 86989 13780 35%
c = 38.31 31 162 0 34 11536 21 132787 19069 2.5 16 6 2 5 29% 11356 86989 13637 35%
c d 38.32 31 162 0 34 11536 21 132787 18874 2.5 16 6 2 5 29% 11055 86989 13637 35%
c t 38.33 31 162 0 34 11536 21 132787 18874 2.5 16 6 2 5 29% 11002 86989 13637 35%
c f 38.36 31 162 0 34 11536 21 132787 18874 2.5 16 6 2 5 29% 11004 86978 13638 35%
c
c  seconds   switched      rate          size/glue tier1    binary          remaining
c         MB   reductions    conflicts         size  tier2      irredundant
c           level   restarts        redundant    glue   trail          variables
c
c u 38.48 31 162 0 34 11536 21 132787 17851 2.5 16 6 2 5 29% 11010 86978 13638 35%
c v 38.55 31 162 0 34 11536 21 132787 17311 2.5 16 6 2 5 29% 11010 86978 13638 35%
c w 38.66 31 162 0 34 11536 21 132787 17055 2.5 16 6 2 5 29% 11010 86978 13638 35%
c x 38.77 31 162 0 34 11536 21 132787 17035 2.5 16 6 2 5 29% 11028 84754 13638 35%
c t 39.28 31 162 0 34 11536 21 132787 17035 2.5 16 6 2 5 29% 11019 84754 13638 35%
c - 39.71 31 160 0 35 11759 21 135890 17579 2.5 16 6 2 5 29% 11027 84754 13638 35%
c - 40.51 31 157 0 36 12183 20 141806 20388 2.5 16 6 2 5 29% 11048 84752 13638 35%
c - 41.29 31 154 0 37 12620 20 147806 22774 2.4 16 6 2 5 29% 11067 84750 13638 35%
c - 42.45 31 153 0 38 13255 20 153888 24820 2.5 17 7 2 5 29% 11105 84750 13638 35%
c s 43.07 31 152 0 38 13623 20 157862 28360 2.5 17 7 2 5 29% 11142 84418 13638 35%
c e 43.22 33 152 0 38 13623 20 157862 28360 2.5 17 7 2 5 29% 7492 100745 11465 29%
c 2 43.22 33 152 0 38 13623 20 157862 28360 2.5 17 7 2 5 29% 7480 100745 11465 29%
c s 43.28 33 152 0 38 13623 20 157862 28360 2.5 17 7 2 5 29% 7510 98711 11465 29%
c e 43.32 33 152 0 38 13623 20 157862 28360 2.5 17 7 2 5 29% 7365 99179 11404 29%
c ^ 43.32 33 152 0 38 13623 20 157862 28360 2.5 17 7 2 5 29% 7365 99179 11404 29%
c - 43.66 34 151 0 39 13812 20 160052 18868 2.5 17 7 2 5 29% 7368 99179 11404 29%
c o 43.68 34 151 0 39 13821 20 160213 19020 2.5 17 7 2 5 29% 7368 99179 11404 29%
c u 44.38 34 150 0 39 14175 20 164740 20235 2.5 16 7 2 5 29% 7385 99178 11404 29%
c v 44.46 34 150 0 39 14175 20 164740 17977 2.5 16 7 2 5 29% 7385 99178 11404 29%
c w 44.55 34 150 0 39 14175 20 164740 17926 2.5 16 7 2 5 29% 7385 99178 11404 29%
c
c  seconds   switched      rate          size/glue tier1    binary         remaining
c         MB   reductions    conflicts         size  tier2     irredundant
c           level   restarts        redundant    glue   trail         variables
c
c x 44.63 34 150 0 39 14175 20 164740 17925 2.5 16 7 2 5 29% 7385 99064 11404 29%
c t 44.65 34 150 0 39 14175 20 164740 17925 2.5 16 7 2 5 29% 7308 99064 11404 29%
c f 44.80 34 150 0 39 14175 20 164740 17925 2.5 16 7 2 5 29% 7294 98347 11439 29%
c u 44.89 34 150 0 39 14175 20 164740 17323 2.5 16 7 2 5 29% 7296 98347 11439 29%
c v 44.94 34 150 0 39 14175 20 164740 16935 2.5 16 7 2 5 29% 7296 98347 11439 29%
c w 45.17 34 150 0 39 14175 20 164740 16529 2.5 16 7 2 5 29% 7296 98347 11439 29%
c = 45.69 34 150 0 39 14175 20 164740 16529 2.5 16 7 2 5 29% 7504 98347 11335 29%
c d 45.70 34 150 0 39 14175 20 164740 16409 2.5 16 7 2 5 29% 7285 98347 11335 29%
c - 46.00 34 149 0 40 14335 20 166296 15830 2.4 16 7 2 5 29% 7288 98347 11335 29%
c - 46.74 34 146 0 41 14757 19 172620 19057 2.4 16 7 2 5 29% 7303 98345 11335 29%
c - 47.57 34 143 0 42 15251 19 179025 21867 2.4 16 7 2 5 29% 7317 98344 11335 29%
c i 48.30 34 142 0 42 15684 19 183618 26086 2.4 16 7 2 5 29% 7332 98343 11334 29%
c i 48.37 34 142 0 42 15721 19 184139 26564 2.4 16 7 2 5 29% 7335 98343 11332 29%
c i 48.44 34 142 0 42 15780 19 184873 27142 2.4 16 7 2 5 29% 7344 98343 11325 29%
c i 48.45 34 142 0 42 15782 19 185028 27263 2.4 16 7 2 5 29% 7347 98343 11321 29%
c - 48.57 34 142 0 43 15855 19 185507 23828 2.4 16 7 2 5 29% 7327 98343 11321 29%
c i 48.67 34 141 0 43 15909 19 186188 24455 2.4 16 7 2 5 29% 7329 98340 11320 29%
c i 48.81 34 141 0 43 16002 19 187294 25469 2.4 16 7 2 5 29% 7335 98340 11318 29%
c i 48.83 34 141 0 43 16015 19 187611 25687 2.4 16 7 2 5 29% 7340 98340 11317 29%
c i 48.91 34 141 0 43 16066 19 188122 26107 2.4 16 7 2 5 29% 7342 98340 11316 29%
c
c  seconds   switched      rate          size/glue tier1    binary         remaining
c         MB   reductions    conflicts         size  tier2     irredundant
c           level   restarts        redundant    glue   trail         variables
c
c i 49.40 34 139 0 43 16350 19 191420 29164 2.4 16 7 2 5 29% 7351 98340 11315 29%
c - 49.46 34 139 0 44 16392 19 192068 25386 2.4 16 7 2 5 29% 7341 98340 11314 29%
c i 50.17 34 138 0 44 16848 19 196696 29666 2.4 16 7 2 5 29% 7355 98340 11312 29%
c i 50.43 34 137 0 44 17001 19 198145 30981 2.4 16 7 2 5 29% 7362 98340 11311 29%
c - 50.50 34 137 0 45 17027 19 198703 26927 2.4 16 7 2 5 29% 7351 98340 11311 29%
c i 50.64 34 136 0 45 17132 19 200059 28053 2.4 16 7 2 5 29% 7362 98340 11310 29%
c d 50.68 34 136 0 45 17144 19 200520 28309 2.4 16 7 2 5 29% 7409 98074 11302 29%
c d 50.69 34 136 0 45 17144 19 200520 28277 2.4 16 7 2 5 29% 7351 98074 11273 29%
c u 50.80 34 136 0 45 17144 19 200520 24840 2.4 16 7 2 5 29% 7356 98074 11273 29%
c v 50.89 34 136 0 45 17144 19 200520 21835 2.4 16 7 2 5 29% 7356 98074 11273 29%
c w 50.94 34 136 0 45 17144 19 200520 21750 2.4 16 7 2 5 29% 7356 98074 11273 29%
c x 51.03 34 136 0 45 17144 19 200520 21750 2.4 16 7 2 5 29% 7357 98045 11273 29%
c = 51.59 34 136 0 45 17144 19 200520 21750 2.4 16 7 2 5 29% 7467 97991 11212 29%
c d 51.60 34 136 0 45 17144 19 200520 21588 2.4 16 7 2 5 29% 7344 97991 11212 29%
c t 51.61 34 136 0 45 17144 19 200520 21588 2.4 16 7 2 5 29% 7301 97991 11212 29%
c u 51.75 34 136 0 45 17144 19 200520 20457 2.4 16 7 2 5 29% 7299 97991 11212 29%
c v 51.81 34 136 0 45 17144 19 200520 19895 2.4 16 7 2 5 29% 7299 97991 11212 29%
c w 51.88 34 136 0 45 17144 19 200520 19581 2.4 16 7 2 5 29% 7299 97991 11212 29%
c t 52.46 34 136 0 45 17144 19 200520 19581 2.4 16 7 2 5 29% 7298 97991 11212 29%
c i 52.63 34 136 0 45 17228 19 202248 21103 2.3 16 7 2 5 29% 7306 97989 11211 29%
c
c  seconds   switched      rate          size/glue tier1    binary         remaining
c         MB   reductions    conflicts         size  tier2     irredundant
c           level   restarts        redundant    glue   trail         variables
c
c - 52.87 34 135 0 46 17396 18 205412 20867 2.3 16 7 2 5 29% 7309 97989 11211 29%
c - 53.35 34 132 0 47 17748 18 212194 23477 2.3 16 7 2 5 28% 7351 97988 11211 29%
c i 53.38 34 131 0 47 17768 18 212939 24072 2.3 16 7 2 5 28% 7358 97988 11210 29%
c - 53.82 34 128 0 48 18132 17 219052 25607 2.3 16 7 2 5 27% 7391 97988 11210 29%
c o 53.87 34 127 0 48 18167 17 220218 26498 2.3 16 7 2 5 27% 7402 97988 11210 29%
c i 54.15 34 125 0 48 18461 17 224092 29977 2.3 16 7 2 5 27% 7422 97988 11209 29%
c - 54.35 34 124 0 49 18655 17 225981 27636 2.3 16 7 2 5 26% 7429 97988 11209 29%
c i 54.92 34 121 0 49 19160 16 232439 33472 2.3 16 7 2 5 26% 7459 97988 11208 29%
c - 54.97 34 121 0 50 19201 16 232981 29454 2.3 16 7 2 5 26% 7464 97988 11208 29%
c i 55.03 34 120 0 50 19266 16 233736 30089 2.3 16 7 2 5 26% 7471 97988 11207 29%
c s 55.48 34 117 0 50 19644 16 239973 35679 2.3 16 7 2 5 25% 7491 96971 11207 29%
c e 55.68 34 117 0 50 19644 16 239973 35679 2.3 16 7 2 5 25% 4673 119662 9364 24%
c 2 55.68 34 117 0 50 19644 16 239973 35679 2.3 16 7 2 5 25% 4663 119662 9364 24%
c s 55.75 34 117 0 50 19644 16 239973 35679 2.3 16 7 2 5 25% 4679 115191 9364 24%
c e 55.82 34 117 0 50 19644 16 239973 35679 2.3 16 7 2 5 25% 4551 116135 9296 24%
c ! 55.82 34 117 0 50 19644 16 239973 35679 2.3 16 7 2 5 25% 4551 116135 9296 24%
c - 55.85 33 117 0 51 19649 16 240053 18003 2.3 16 7 2 5 25% 4551 116135 9296 24%
c u 55.95 33 117 0 51 19663 16 240174 15532 2.3 16 7 2 5 25% 4560 116135 9295 24%
c v 56.00 33 117 0 51 19663 16 240174 14411 2.3 16 7 2 5 25% 4560 116135 9295 24%
c w 56.02 33 117 0 51 19663 16 240174 14307 2.3 16 7 2 5 25% 4560 116135 9295 24%
c
c  seconds   switched      rate          size/glue tier1    binary         remaining
c         MB   reductions    conflicts         size  tier2     irredundant
c           level   restarts        redundant    glue   trail         variables
c
c d 56.02 33 117 0 51 19663 16 240174 14305 2.3 16 7 2 5 25% 4558 116113 9293 24%
c d 56.03 33 117 0 51 19663 16 240174 14305 2.3 16 7 2 5 25% 4556 116113 9292 24%
c t 56.03 33 117 0 51 19663 16 240174 14305 2.3 16 7 2 5 25% 4493 116113 9292 24%
c f 56.13 33 117 0 51 19663 16 240174 14305 2.3 16 7 2 5 25% 4625 112413 9424 24%
c u 56.22 33 117 0 51 19663 16 240174 13942 2.3 16 7 2 5 25% 4628 112413 9424 24%
c v 56.25 33 117 0 51 19663 16 240174 13695 2.3 16 7 2 5 25% 4628 112413 9424 24%
c w 56.26 33 117 0 51 19663 16 240174 13659 2.3 16 7 2 5 25% 4628 112413 9424 24%
c x 56.38 33 117 0 51 19663 16 240174 13611 2.3 16 7 2 5 25% 4634 109458 9424 24%
c = 56.52 33 117 0 51 19663 16 240174 13611 2.3 16 7 2 5 25% 4739 109213 9347 24%
c } 56.52 33 117 0 51 19663 16 240174 13611 2.3 16 7 2 5 25% 4739 109213 9399 24%
c 0 56.52 33 117 0 51 19663 16 240174 13611 2.3 16 7 2 5 25% 4739 109213 9399 24%
c
c ---- [ result ] ------------------------------------------------------------
c
s UNSATISFIABLE
c
c ---- [ profiling ] ---------------------------------------------------------
c
c          38.02   67.27 %  search
c          38.02   67.27 %  focused
c          17.83   31.55 %  simplify
c          16.59   29.35 %  probe
c           6.91   12.23 %  sweep
c           6.28   11.11 %  vivify
c           1.61    2.86 %  eliminate
c           1.52    2.69 %  factor
c           0.91    1.61 %  substitute
c           0.60    1.07 %  congruence
c           0.57    1.01 %  preprocess
c           0.38    0.67 %  subsume
c           0.33    0.58 %  reduce
c           0.23    0.40 %  transitive
c           0.19    0.34 %  fastel
c           0.14    0.24 %  backbone
c           0.06    0.10 %  lucky
c           0.04    0.07 %  parse
c =============================================
c          56.52  100.00 %  total
c
c ---- [ statistics ] --------------------------------------------------------
c
c chronological:                         6000                2 %  conflicts
c conflicts:                           240174             4249.57 per second
c congruent:                             4462               11 %  variables
c decisions:                          4240170               17.65 per conflict
c eliminated:                           22951               59 %  variables
c factored:                              2933                7 %  variables
c fast_eliminated:                       8820               38 %  eliminated
c fast_strengthened:                       54                0 %  per strengthened
c fast_subsumed:                           32                0 %  per subsumed
c iterations:                              17                0 %  variables
c propagations:                     206711645          3657493    per second
c reductions:                              51             4709    interval
c reordered:                                7            34311    interval
c restarts:                             19663               12    interval
c strengthened:                         11230                0 %  checks
c substituted:                           9728               25 %  variables
c subsumed:                             16978                0 %  checks
c switched:                                 0                0    interval
c vivified:                            118065               16 %  checks
c
c ---- [ glue usage ] --------------------------------------------------------
c
c focused glue 2 used 137560 clauses 24.74% accumulated 70.55% tier1
c focused glue 3 used  64915 clauses 11.68% accumulated 82.23%
c focused glue 4 used  29996 clauses  5.40% accumulated 87.62%
c focused glue 5 used  17369 clauses  3.12% accumulated 90.75% tier2
c
c ---- [ resources ] ---------------------------------------------------------
c
c maximum-resident-set-size:         35151872 bytes         34 MB
c process-time:                            57s              56.52 seconds
c
c ---- [ shutting down ] -----------------------------------------------------
c
c exit 20
